My LP Problem:
MINIMIZE
0.7495716418529059*Foods_avocado + 0.2866009218849346*Foods_beans + 0.4759339001270745*Foods_cheese + 0.09259414399359425*Foods_rice + 5.247001492970341*Foods_spinach + 0.0
SUBJECT TO
Amount_protein: 2.67 Foods_avocado + 10 Foods_beans + 7 Foods_cheese
 + 3 Foods_rice + 9.72 Foods_spinach >= 56

Amount_vitamin_C: 12 Foods_avocado + 95.5 Foods_spinach >= 90

Amount_vitamin_A: 200 Foods_avocado + 589 Foods_cheese + 31882 Foods_spinach
 >= 700

Amount_calories: 227 Foods_avocado + 150 Foods_beans + 110 Foods_cheese
 + 150 Foods_rice + 78 Foods_spinach = 2000

Amount_sodium: 11 Foods_avocado + 341 Foods_beans + 180 Foods_cheese
 + 269 Foods_spinach <= 2400

Amount_saturated_fat: 2.891 Foods_avocado + 5.001 Foods_cheese
 + 0.214 Foods_spinach <= 20

VARIABLES
Foods_avocado Continuous
Foods_beans Continuous
Foods_cheese Continuous
Foods_rice Continuous
Foods_spinach Continuous

1
Optimal
Foods_avocado = 0.0
Foods_beans = 1.1871354
Foods_cheese = 0.0
Foods_rice = 11.656146
Foods_spinach = 0.94240838
******
OBJECTIVE 6.36434313802436
*****
{(658.32102562, 'sodium'), (2000.00006364, 'calories'), (56.00000145360001, 'protein'), (90.00000029, 'vitaminC'), (30045.86397116, 'vitaminA'), (0.20167539332, 'saturatedFat')}
*****
